output/lp/model_MTZ_burma14.lp
\ENCODING=ISO-8859-1
\Problem name: TSP

Minimize
 obj1: x(1,1) + 153 x(1,2) + 510 x(1,3) + 706 x(1,4) + 966 x(1,5) + 581 x(1,6)
       + 455 x(1,7) + 70 x(1,8) + 160 x(1,9) + 372 x(1,10) + 157 x(1,11)
       + 567 x(1,12) + 342 x(1,13) + 398 x(1,14) + 153 x(2,1) + x(2,2)
       + 422 x(2,3) + 664 x(2,4) + 997 x(2,5) + 598 x(2,6) + 507 x(2,7)
       + 197 x(2,8) + 311 x(2,9) + 479 x(2,10) + 310 x(2,11) + 581 x(2,12)
       + 417 x(2,13) + 376 x(2,14) + 510 x(3,1) + 422 x(3,2) + x(3,3)
       + 289 x(3,4) + 744 x(3,5) + 390 x(3,6) + 437 x(3,7) + 491 x(3,8)
       + 645 x(3,9) + 880 x(3,10) + 618 x(3,11) + 374 x(3,12) + 455 x(3,13)
       + 211 x(3,14) + 706 x(4,1) + 664 x(4,2) + 289 x(4,3) + x(4,4)
       + 491 x(4,5) + 265 x(4,6) + 410 x(4,7) + 664 x(4,8) + 804 x(4,9)
       + 1070 x(4,10) + 768 x(4,11) + 259 x(4,12) + 499 x(4,13) + 310 x(4,14)
       + 966 x(5,1) + 997 x(5,2) + 744 x(5,3) + 491 x(5,4) + x(5,5)
       + 400 x(5,6) + 514 x(5,7) + 902 x(5,8) + 990 x(5,9) + 1261 x(5,10)
       + 947 x(5,11) + 418 x(5,12) + 635 x(5,13) + 636 x(5,14) + 581 x(6,1)
       + 598 x(6,2) + 390 x(6,3) + 265 x(6,4) + 400 x(6,5) + x(6,6)
       + 168 x(6,7) + 522 x(6,8) + 634 x(6,9) + 910 x(6,10) + 593 x(6,11)
       + 19 x(6,12) + 284 x(6,13) + 239 x(6,14) + 455 x(7,1) + 507 x(7,2)
       + 437 x(7,3) + 410 x(7,4) + 514 x(7,5) + 168 x(7,6) + x(7,7)
       + 389 x(7,8) + 482 x(7,9) + 757 x(7,10) + 439 x(7,11) + 163 x(7,12)
       + 124 x(7,13) + 232 x(7,14) + 70 x(8,1) + 197 x(8,2) + 491 x(8,3)
       + 664 x(8,4) + 902 x(8,5) + 522 x(8,6) + 389 x(8,7) + x(8,8)
       + 154 x(8,9) + 406 x(8,10) + 133 x(8,11) + 508 x(8,12) + 273 x(8,13)
       + 355 x(8,14) + 160 x(9,1) + 311 x(9,2) + 645 x(9,3) + 804 x(9,4)
       + 990 x(9,5) + 634 x(9,6) + 482 x(9,7) + 154 x(9,8) + x(9,9)
       + 276 x(9,10) + 43 x(9,11) + 623 x(9,12) + 358 x(9,13) + 498 x(9,14)
       + 372 x(10,1) + 479 x(10,2) + 880 x(10,3) + 1070 x(10,4) + 1261 x(10,5)
       + 910 x(10,6) + 757 x(10,7) + 406 x(10,8) + 276 x(10,9) + x(10,10)
       + 318 x(10,11) + 898 x(10,12) + 633 x(10,13) + 761 x(10,14)
       + 157 x(11,1) + 310 x(11,2) + 618 x(11,3) + 768 x(11,4) + 947 x(11,5)
       + 593 x(11,6) + 439 x(11,7) + 133 x(11,8) + 43 x(11,9) + 318 x(11,10)
       + x(11,11) + 582 x(11,12) + 315 x(11,13) + 464 x(11,14) + 567 x(12,1)
       + 581 x(12,2) + 374 x(12,3) + 259 x(12,4) + 418 x(12,5) + 19 x(12,6)
       + 163 x(12,7) + 508 x(12,8) + 623 x(12,9) + 898 x(12,10) + 582 x(12,11)
       + x(12,12) + 275 x(12,13) + 221 x(12,14) + 342 x(13,1) + 417 x(13,2)
       + 455 x(13,3) + 499 x(13,4) + 635 x(13,5) + 284 x(13,6) + 124 x(13,7)
       + 273 x(13,8) + 358 x(13,9) + 633 x(13,10) + 315 x(13,11) + 275 x(13,12)
       + x(13,13) + 247 x(13,14) + 398 x(14,1) + 376 x(14,2) + 211 x(14,3)
       + 310 x(14,4) + 636 x(14,5) + 239 x(14,6) + 232 x(14,7) + 355 x(14,8)
       + 498 x(14,9) + 761 x(14,10) + 464 x(14,11) + 221 x(14,12)
       + 247 x(14,13) + x(14,14) + 0 u(1)
Subject To
 in_degree(1)#0:                 x(1,1) + x(2,1) + x(3,1) + x(4,1) + x(5,1)
                                 + x(6,1) + x(7,1) + x(8,1) + x(9,1) + x(10,1)
                                 + x(11,1) + x(12,1) + x(13,1) + x(14,1)  = 1
 in_degree(2)#1:                 x(1,2) + x(2,2) + x(3,2) + x(4,2) + x(5,2)
                                 + x(6,2) + x(7,2) + x(8,2) + x(9,2) + x(10,2)
                                 + x(11,2) + x(12,2) + x(13,2) + x(14,2)  = 1
 in_degree(3)#2:                 x(1,3) + x(2,3) + x(3,3) + x(4,3) + x(5,3)
                                 + x(6,3) + x(7,3) + x(8,3) + x(9,3) + x(10,3)
                                 + x(11,3) + x(12,3) + x(13,3) + x(14,3)  = 1
 in_degree(4)#3:                 x(1,4) + x(2,4) + x(3,4) + x(4,4) + x(5,4)
                                 + x(6,4) + x(7,4) + x(8,4) + x(9,4) + x(10,4)
                                 + x(11,4) + x(12,4) + x(13,4) + x(14,4)  = 1
 in_degree(5)#4:                 x(1,5) + x(2,5) + x(3,5) + x(4,5) + x(5,5)
                                 + x(6,5) + x(7,5) + x(8,5) + x(9,5) + x(10,5)
                                 + x(11,5) + x(12,5) + x(13,5) + x(14,5)  = 1
 in_degree(6)#5:                 x(1,6) + x(2,6) + x(3,6) + x(4,6) + x(5,6)
                                 + x(6,6) + x(7,6) + x(8,6) + x(9,6) + x(10,6)
                                 + x(11,6) + x(12,6) + x(13,6) + x(14,6)  = 1
 in_degree(7)#6:                 x(1,7) + x(2,7) + x(3,7) + x(4,7) + x(5,7)
                                 + x(6,7) + x(7,7) + x(8,7) + x(9,7) + x(10,7)
                                 + x(11,7) + x(12,7) + x(13,7) + x(14,7)  = 1
 in_degree(8)#7:                 x(1,8) + x(2,8) + x(3,8) + x(4,8) + x(5,8)
                                 + x(6,8) + x(7,8) + x(8,8) + x(9,8) + x(10,8)
                                 + x(11,8) + x(12,8) + x(13,8) + x(14,8)  = 1
 in_degree(9)#8:                 x(1,9) + x(2,9) + x(3,9) + x(4,9) + x(5,9)
                                 + x(6,9) + x(7,9) + x(8,9) + x(9,9) + x(10,9)
                                 + x(11,9) + x(12,9) + x(13,9) + x(14,9)  = 1
 in_degree(10)#9:                x(1,10) + x(2,10) + x(3,10) + x(4,10)
                                 + x(5,10) + x(6,10) + x(7,10) + x(8,10)
                                 + x(9,10) + x(10,10) + x(11,10) + x(12,10)
                                 + x(13,10) + x(14,10)  = 1
 in_degree(11)#10:               x(1,11) + x(2,11) + x(3,11) + x(4,11)
                                 + x(5,11) + x(6,11) + x(7,11) + x(8,11)
                                 + x(9,11) + x(10,11) + x(11,11) + x(12,11)
                                 + x(13,11) + x(14,11)  = 1
 in_degree(12)#11:               x(1,12) + x(2,12) + x(3,12) + x(4,12)
                                 + x(5,12) + x(6,12) + x(7,12) + x(8,12)
                                 + x(9,12) + x(10,12) + x(11,12) + x(12,12)
                                 + x(13,12) + x(14,12)  = 1
 in_degree(13)#12:               x(1,13) + x(2,13) + x(3,13) + x(4,13)
                                 + x(5,13) + x(6,13) + x(7,13) + x(8,13)
                                 + x(9,13) + x(10,13) + x(11,13) + x(12,13)
                                 + x(13,13) + x(14,13)  = 1
 in_degree(14)#13:               x(1,14) + x(2,14) + x(3,14) + x(4,14)
                                 + x(5,14) + x(6,14) + x(7,14) + x(8,14)
                                 + x(9,14) + x(10,14) + x(11,14) + x(12,14)
                                 + x(13,14) + x(14,14)  = 1
 out_degree(1)#14:               x(1,1) + x(1,2) + x(1,3) + x(1,4) + x(1,5)
                                 + x(1,6) + x(1,7) + x(1,8) + x(1,9) + x(1,10)
                                 + x(1,11) + x(1,12) + x(1,13) + x(1,14)  = 1
 out_degree(2)#15:               x(2,1) + x(2,2) + x(2,3) + x(2,4) + x(2,5)
                                 + x(2,6) + x(2,7) + x(2,8) + x(2,9) + x(2,10)
                                 + x(2,11) + x(2,12) + x(2,13) + x(2,14)  = 1
 out_degree(3)#16:               x(3,1) + x(3,2) + x(3,3) + x(3,4) + x(3,5)
                                 + x(3,6) + x(3,7) + x(3,8) + x(3,9) + x(3,10)
                                 + x(3,11) + x(3,12) + x(3,13) + x(3,14)  = 1
 out_degree(4)#17:               x(4,1) + x(4,2) + x(4,3) + x(4,4) + x(4,5)
                                 + x(4,6) + x(4,7) + x(4,8) + x(4,9) + x(4,10)
                                 + x(4,11) + x(4,12) + x(4,13) + x(4,14)  = 1
 out_degree(5)#18:               x(5,1) + x(5,2) + x(5,3) + x(5,4) + x(5,5)
                                 + x(5,6) + x(5,7) + x(5,8) + x(5,9) + x(5,10)
                                 + x(5,11) + x(5,12) + x(5,13) + x(5,14)  = 1
 out_degree(6)#19:               x(6,1) + x(6,2) + x(6,3) + x(6,4) + x(6,5)
                                 + x(6,6) + x(6,7) + x(6,8) + x(6,9) + x(6,10)
                                 + x(6,11) + x(6,12) + x(6,13) + x(6,14)  = 1
 out_degree(7)#20:               x(7,1) + x(7,2) + x(7,3) + x(7,4) + x(7,5)
                                 + x(7,6) + x(7,7) + x(7,8) + x(7,9) + x(7,10)
                                 + x(7,11) + x(7,12) + x(7,13) + x(7,14)  = 1
 out_degree(8)#21:               x(8,1) + x(8,2) + x(8,3) + x(8,4) + x(8,5)
                                 + x(8,6) + x(8,7) + x(8,8) + x(8,9) + x(8,10)
                                 + x(8,11) + x(8,12) + x(8,13) + x(8,14)  = 1
 out_degree(9)#22:               x(9,1) + x(9,2) + x(9,3) + x(9,4) + x(9,5)
                                 + x(9,6) + x(9,7) + x(9,8) + x(9,9) + x(9,10)
                                 + x(9,11) + x(9,12) + x(9,13) + x(9,14)  = 1
 out_degree(10)#23:              x(10,1) + x(10,2) + x(10,3) + x(10,4)
                                 + x(10,5) + x(10,6) + x(10,7) + x(10,8)
                                 + x(10,9) + x(10,10) + x(10,11) + x(10,12)
                                 + x(10,13) + x(10,14)  = 1
 out_degree(11)#24:              x(11,1) + x(11,2) + x(11,3) + x(11,4)
                                 + x(11,5) + x(11,6) + x(11,7) + x(11,8)
                                 + x(11,9) + x(11,10) + x(11,11) + x(11,12)
                                 + x(11,13) + x(11,14)  = 1
 out_degree(12)#25:              x(12,1) + x(12,2) + x(12,3) + x(12,4)
                                 + x(12,5) + x(12,6) + x(12,7) + x(12,8)
                                 + x(12,9) + x(12,10) + x(12,11) + x(12,12)
                                 + x(12,13) + x(12,14)  = 1
 out_degree(13)#26:              x(13,1) + x(13,2) + x(13,3) + x(13,4)
                                 + x(13,5) + x(13,6) + x(13,7) + x(13,8)
                                 + x(13,9) + x(13,10) + x(13,11) + x(13,12)
                                 + x(13,13) + x(13,14)  = 1
 out_degree(14)#27:              x(14,1) + x(14,2) + x(14,3) + x(14,4)
                                 + x(14,5) + x(14,6) + x(14,7) + x(14,8)
                                 + x(14,9) + x(14,10) + x(14,11) + x(14,12)
                                 + x(14,13) + x(14,14)  = 1
 u_consistency_for_arc_(2,3)#28: 13 x(2,3) + u(2) - u(3) <= 12
 u_consistency_for_arc_(2,4)#29: 13 x(2,4) + u(2) - u(4) <= 12
 u_consistency_for_arc_(2,5)#30: 13 x(2,5) + u(2) - u(5) <= 12
 u_consistency_for_arc_(2,6)#31: 13 x(2,6) + u(2) - u(6) <= 12
 u_consistency_for_arc_(2,7)#32: 13 x(2,7) + u(2) - u(7) <= 12
 u_consistency_for_arc_(2,8)#33: 13 x(2,8) + u(2) - u(8) <= 12
 u_consistency_for_arc_(2,9)#34: 13 x(2,9) + u(2) - u(9) <= 12
 u_consistency_for_arc_(2,10)#35: 13 x(2,10) + u(2) - u(10) <= 12
 u_consistency_for_arc_(2,11)#36: 13 x(2,11) + u(2) - u(11) <= 12
 u_consistency_for_arc_(2,12)#37: 13 x(2,12) + u(2) - u(12) <= 12
 u_consistency_for_arc_(2,13)#38: 13 x(2,13) + u(2) - u(13) <= 12
 u_consistency_for_arc_(2,14)#39: 13 x(2,14) + u(2) - u(14) <= 12
 u_consistency_for_arc_(3,2)#40: 13 x(3,2) - u(2) + u(3) <= 12
 u_consistency_for_arc_(3,4)#41: 13 x(3,4) + u(3) - u(4) <= 12
 u_consistency_for_arc_(3,5)#42: 13 x(3,5) + u(3) - u(5) <= 12
 u_consistency_for_arc_(3,6)#43: 13 x(3,6) + u(3) - u(6) <= 12
 u_consistency_for_arc_(3,7)#44: 13 x(3,7) + u(3) - u(7) <= 12
 u_consistency_for_arc_(3,8)#45: 13 x(3,8) + u(3) - u(8) <= 12
 u_consistency_for_arc_(3,9)#46: 13 x(3,9) + u(3) - u(9) <= 12
 u_consistency_for_arc_(3,10)#47: 13 x(3,10) + u(3) - u(10) <= 12
 u_consistency_for_arc_(3,11)#48: 13 x(3,11) + u(3) - u(11) <= 12
 u_consistency_for_arc_(3,12)#49: 13 x(3,12) + u(3) - u(12) <= 12
 u_consistency_for_arc_(3,13)#50: 13 x(3,13) + u(3) - u(13) <= 12
 u_consistency_for_arc_(3,14)#51: 13 x(3,14) + u(3) - u(14) <= 12
 u_consistency_for_arc_(4,2)#52: 13 x(4,2) - u(2) + u(4) <= 12
 u_consistency_for_arc_(4,3)#53: 13 x(4,3) - u(3) + u(4) <= 12
 u_consistency_for_arc_(4,5)#54: 13 x(4,5) + u(4) - u(5) <= 12
 u_consistency_for_arc_(4,6)#55: 13 x(4,6) + u(4) - u(6) <= 12
 u_consistency_for_arc_(4,7)#56: 13 x(4,7) + u(4) - u(7) <= 12
 u_consistency_for_arc_(4,8)#57: 13 x(4,8) + u(4) - u(8) <= 12
 u_consistency_for_arc_(4,9)#58: 13 x(4,9) + u(4) - u(9) <= 12
 u_consistency_for_arc_(4,10)#59: 13 x(4,10) + u(4) - u(10) <= 12
 u_consistency_for_arc_(4,11)#60: 13 x(4,11) + u(4) - u(11) <= 12
 u_consistency_for_arc_(4,12)#61: 13 x(4,12) + u(4) - u(12) <= 12
 u_consistency_for_arc_(4,13)#62: 13 x(4,13) + u(4) - u(13) <= 12
 u_consistency_for_arc_(4,14)#63: 13 x(4,14) + u(4) - u(14) <= 12
 u_consistency_for_arc_(5,2)#64: 13 x(5,2) - u(2) + u(5) <= 12
 u_consistency_for_arc_(5,3)#65: 13 x(5,3) - u(3) + u(5) <= 12
 u_consistency_for_arc_(5,4)#66: 13 x(5,4) - u(4) + u(5) <= 12
 u_consistency_for_arc_(5,6)#67: 13 x(5,6) + u(5) - u(6) <= 12
 u_consistency_for_arc_(5,7)#68: 13 x(5,7) + u(5) - u(7) <= 12
 u_consistency_for_arc_(5,8)#69: 13 x(5,8) + u(5) - u(8) <= 12
 u_consistency_for_arc_(5,9)#70: 13 x(5,9) + u(5) - u(9) <= 12
 u_consistency_for_arc_(5,10)#71: 13 x(5,10) + u(5) - u(10) <= 12
 u_consistency_for_arc_(5,11)#72: 13 x(5,11) + u(5) - u(11) <= 12
 u_consistency_for_arc_(5,12)#73: 13 x(5,12) + u(5) - u(12) <= 12
 u_consistency_for_arc_(5,13)#74: 13 x(5,13) + u(5) - u(13) <= 12
 u_consistency_for_arc_(5,14)#75: 13 x(5,14) + u(5) - u(14) <= 12
 u_consistency_for_arc_(6,2)#76: 13 x(6,2) - u(2) + u(6) <= 12
 u_consistency_for_arc_(6,3)#77: 13 x(6,3) - u(3) + u(6) <= 12
 u_consistency_for_arc_(6,4)#78: 13 x(6,4) - u(4) + u(6) <= 12
 u_consistency_for_arc_(6,5)#79: 13 x(6,5) - u(5) + u(6) <= 12
 u_consistency_for_arc_(6,7)#80: 13 x(6,7) + u(6) - u(7) <= 12
 u_consistency_for_arc_(6,8)#81: 13 x(6,8) + u(6) - u(8) <= 12
 u_consistency_for_arc_(6,9)#82: 13 x(6,9) + u(6) - u(9) <= 12
 u_consistency_for_arc_(6,10)#83: 13 x(6,10) + u(6) - u(10) <= 12
 u_consistency_for_arc_(6,11)#84: 13 x(6,11) + u(6) - u(11) <= 12
 u_consistency_for_arc_(6,12)#85: 13 x(6,12) + u(6) - u(12) <= 12
 u_consistency_for_arc_(6,13)#86: 13 x(6,13) + u(6) - u(13) <= 12
 u_consistency_for_arc_(6,14)#87: 13 x(6,14) + u(6) - u(14) <= 12
 u_consistency_for_arc_(7,2)#88: 13 x(7,2) - u(2) + u(7) <= 12
 u_consistency_for_arc_(7,3)#89: 13 x(7,3) - u(3) + u(7) <= 12
 u_consistency_for_arc_(7,4)#90: 13 x(7,4) - u(4) + u(7) <= 12
 u_consistency_for_arc_(7,5)#91: 13 x(7,5) - u(5) + u(7) <= 12
 u_consistency_for_arc_(7,6)#92: 13 x(7,6) - u(6) + u(7) <= 12
 u_consistency_for_arc_(7,8)#93: 13 x(7,8) + u(7) - u(8) <= 12
 u_consistency_for_arc_(7,9)#94: 13 x(7,9) + u(7) - u(9) <= 12
 u_consistency_for_arc_(7,10)#95: 13 x(7,10) + u(7) - u(10) <= 12
 u_consistency_for_arc_(7,11)#96: 13 x(7,11) + u(7) - u(11) <= 12
 u_consistency_for_arc_(7,12)#97: 13 x(7,12) + u(7) - u(12) <= 12
 u_consistency_for_arc_(7,13)#98: 13 x(7,13) + u(7) - u(13) <= 12
 u_consistency_for_arc_(7,14)#99: 13 x(7,14) + u(7) - u(14) <= 12
 u_consistency_for_arc_(8,2)#100: 13 x(8,2) - u(2) + u(8) <= 12
 u_consistency_for_arc_(8,3)#101: 13 x(8,3) - u(3) + u(8) <= 12
 u_consistency_for_arc_(8,4)#102: 13 x(8,4) - u(4) + u(8) <= 12
 u_consistency_for_arc_(8,5)#103: 13 x(8,5) - u(5) + u(8) <= 12
 u_consistency_for_arc_(8,6)#104: 13 x(8,6) - u(6) + u(8) <= 12
 u_consistency_for_arc_(8,7)#105: 13 x(8,7) - u(7) + u(8) <= 12
 u_consistency_for_arc_(8,9)#106: 13 x(8,9) + u(8) - u(9) <= 12
 u_consistency_for_arc_(8,10)#107: 13 x(8,10) + u(8) - u(10) <= 12
 u_consistency_for_arc_(8,11)#108: 13 x(8,11) + u(8) - u(11) <= 12
 u_consistency_for_arc_(8,12)#109: 13 x(8,12) + u(8) - u(12) <= 12
 u_consistency_for_arc_(8,13)#110: 13 x(8,13) + u(8) - u(13) <= 12
 u_consistency_for_arc_(8,14)#111: 13 x(8,14) + u(8) - u(14) <= 12
 u_consistency_for_arc_(9,2)#112: 13 x(9,2) - u(2) + u(9) <= 12
 u_consistency_for_arc_(9,3)#113: 13 x(9,3) - u(3) + u(9) <= 12
 u_consistency_for_arc_(9,4)#114: 13 x(9,4) - u(4) + u(9) <= 12
 u_consistency_for_arc_(9,5)#115: 13 x(9,5) - u(5) + u(9) <= 12
 u_consistency_for_arc_(9,6)#116: 13 x(9,6) - u(6) + u(9) <= 12
 u_consistency_for_arc_(9,7)#117: 13 x(9,7) - u(7) + u(9) <= 12
 u_consistency_for_arc_(9,8)#118: 13 x(9,8) - u(8) + u(9) <= 12
 u_consistency_for_arc_(9,10)#119: 13 x(9,10) + u(9) - u(10) <= 12
 u_consistency_for_arc_(9,11)#120: 13 x(9,11) + u(9) - u(11) <= 12
 u_consistency_for_arc_(9,12)#121: 13 x(9,12) + u(9) - u(12) <= 12
 u_consistency_for_arc_(9,13)#122: 13 x(9,13) + u(9) - u(13) <= 12
 u_consistency_for_arc_(9,14)#123: 13 x(9,14) + u(9) - u(14) <= 12
 u_consistency_for_arc_(10,2)#124: 13 x(10,2) - u(2) + u(10) <= 12
 u_consistency_for_arc_(10,3)#125: 13 x(10,3) - u(3) + u(10) <= 12
 u_consistency_for_arc_(10,4)#126: 13 x(10,4) - u(4) + u(10) <= 12
 u_consistency_for_arc_(10,5)#127: 13 x(10,5) - u(5) + u(10) <= 12
 u_consistency_for_arc_(10,6)#128: 13 x(10,6) - u(6) + u(10) <= 12
 u_consistency_for_arc_(10,7)#129: 13 x(10,7) - u(7) + u(10) <= 12
 u_consistency_for_arc_(10,8)#130: 13 x(10,8) - u(8) + u(10) <= 12
 u_consistency_for_arc_(10,9)#131: 13 x(10,9) - u(9) + u(10) <= 12
 u_consistency_for_arc_(10,11)#132: 13 x(10,11) + u(10) - u(11) <= 12
 u_consistency_for_arc_(10,12)#133: 13 x(10,12) + u(10) - u(12) <= 12
 u_consistency_for_arc_(10,13)#134: 13 x(10,13) + u(10) - u(13) <= 12
 u_consistency_for_arc_(10,14)#135: 13 x(10,14) + u(10) - u(14) <= 12
 u_consistency_for_arc_(11,2)#136: 13 x(11,2) - u(2) + u(11) <= 12
 u_consistency_for_arc_(11,3)#137: 13 x(11,3) - u(3) + u(11) <= 12
 u_consistency_for_arc_(11,4)#138: 13 x(11,4) - u(4) + u(11) <= 12
 u_consistency_for_arc_(11,5)#139: 13 x(11,5) - u(5) + u(11) <= 12
 u_consistency_for_arc_(11,6)#140: 13 x(11,6) - u(6) + u(11) <= 12
 u_consistency_for_arc_(11,7)#141: 13 x(11,7) - u(7) + u(11) <= 12
 u_consistency_for_arc_(11,8)#142: 13 x(11,8) - u(8) + u(11) <= 12
 u_consistency_for_arc_(11,9)#143: 13 x(11,9) - u(9) + u(11) <= 12
 u_consistency_for_arc_(11,10)#144: 13 x(11,10) - u(10) + u(11) <= 12
 u_consistency_for_arc_(11,12)#145: 13 x(11,12) + u(11) - u(12) <= 12
 u_consistency_for_arc_(11,13)#146: 13 x(11,13) + u(11) - u(13) <= 12
 u_consistency_for_arc_(11,14)#147: 13 x(11,14) + u(11) - u(14) <= 12
 u_consistency_for_arc_(12,2)#148: 13 x(12,2) - u(2) + u(12) <= 12
 u_consistency_for_arc_(12,3)#149: 13 x(12,3) - u(3) + u(12) <= 12
 u_consistency_for_arc_(12,4)#150: 13 x(12,4) - u(4) + u(12) <= 12
 u_consistency_for_arc_(12,5)#151: 13 x(12,5) - u(5) + u(12) <= 12
 u_consistency_for_arc_(12,6)#152: 13 x(12,6) - u(6) + u(12) <= 12
 u_consistency_for_arc_(12,7)#153: 13 x(12,7) - u(7) + u(12) <= 12
 u_consistency_for_arc_(12,8)#154: 13 x(12,8) - u(8) + u(12) <= 12
 u_consistency_for_arc_(12,9)#155: 13 x(12,9) - u(9) + u(12) <= 12
 u_consistency_for_arc_(12,10)#156: 13 x(12,10) - u(10) + u(12) <= 12
 u_consistency_for_arc_(12,11)#157: 13 x(12,11) - u(11) + u(12) <= 12
 u_consistency_for_arc_(12,13)#158: 13 x(12,13) + u(12) - u(13) <= 12
 u_consistency_for_arc_(12,14)#159: 13 x(12,14) + u(12) - u(14) <= 12
 u_consistency_for_arc_(13,2)#160: 13 x(13,2) - u(2) + u(13) <= 12
 u_consistency_for_arc_(13,3)#161: 13 x(13,3) - u(3) + u(13) <= 12
 u_consistency_for_arc_(13,4)#162: 13 x(13,4) - u(4) + u(13) <= 12
 u_consistency_for_arc_(13,5)#163: 13 x(13,5) - u(5) + u(13) <= 12
 u_consistency_for_arc_(13,6)#164: 13 x(13,6) - u(6) + u(13) <= 12
 u_consistency_for_arc_(13,7)#165: 13 x(13,7) - u(7) + u(13) <= 12
 u_consistency_for_arc_(13,8)#166: 13 x(13,8) - u(8) + u(13) <= 12
 u_consistency_for_arc_(13,9)#167: 13 x(13,9) - u(9) + u(13) <= 12
 u_consistency_for_arc_(13,10)#168: 13 x(13,10) - u(10) + u(13) <= 12
 u_consistency_for_arc_(13,11)#169: 13 x(13,11) - u(11) + u(13) <= 12
 u_consistency_for_arc_(13,12)#170: 13 x(13,12) - u(12) + u(13) <= 12
 u_consistency_for_arc_(13,14)#171: 13 x(13,14) + u(13) - u(14) <= 12
 u_consistency_for_arc_(14,2)#172: 13 x(14,2) - u(2) + u(14) <= 12
 u_consistency_for_arc_(14,3)#173: 13 x(14,3) - u(3) + u(14) <= 12
 u_consistency_for_arc_(14,4)#174: 13 x(14,4) - u(4) + u(14) <= 12
 u_consistency_for_arc_(14,5)#175: 13 x(14,5) - u(5) + u(14) <= 12
 u_consistency_for_arc_(14,6)#176: 13 x(14,6) - u(6) + u(14) <= 12
 u_consistency_for_arc_(14,7)#177: 13 x(14,7) - u(7) + u(14) <= 12
 u_consistency_for_arc_(14,8)#178: 13 x(14,8) - u(8) + u(14) <= 12
 u_consistency_for_arc_(14,9)#179: 13 x(14,9) - u(9) + u(14) <= 12
 u_consistency_for_arc_(14,10)#180: 13 x(14,10) - u(10) + u(14) <= 12
 u_consistency_for_arc_(14,11)#181: 13 x(14,11) - u(11) + u(14) <= 12
 u_consistency_for_arc_(14,12)#182: 13 x(14,12) - u(12) + u(14) <= 12
 u_consistency_for_arc_(14,13)#183: 13 x(14,13) - u(13) + u(14) <= 12
Bounds
      x(1,1) = 0
 0 <= x(1,2) <= 1
 0 <= x(1,3) <= 1
 0 <= x(1,4) <= 1
 0 <= x(1,5) <= 1
 0 <= x(1,6) <= 1
 0 <= x(1,7) <= 1
 0 <= x(1,8) <= 1
 0 <= x(1,9) <= 1
 0 <= x(1,10) <= 1
 0 <= x(1,11) <= 1
 0 <= x(1,12) <= 1
 0 <= x(1,13) <= 1
 0 <= x(1,14) <= 1
 0 <= x(2,1) <= 1
      x(2,2) = 0
 0 <= x(2,3) <= 1
 0 <= x(2,4) <= 1
 0 <= x(2,5) <= 1
 0 <= x(2,6) <= 1
 0 <= x(2,7) <= 1
 0 <= x(2,8) <= 1
 0 <= x(2,9) <= 1
 0 <= x(2,10) <= 1
 0 <= x(2,11) <= 1
 0 <= x(2,12) <= 1
 0 <= x(2,13) <= 1
 0 <= x(2,14) <= 1
 0 <= x(3,1) <= 1
 0 <= x(3,2) <= 1
      x(3,3) = 0
 0 <= x(3,4) <= 1
 0 <= x(3,5) <= 1
 0 <= x(3,6) <= 1
 0 <= x(3,7) <= 1
 0 <= x(3,8) <= 1
 0 <= x(3,9) <= 1
 0 <= x(3,10) <= 1
 0 <= x(3,11) <= 1
 0 <= x(3,12) <= 1
 0 <= x(3,13) <= 1
 0 <= x(3,14) <= 1
 0 <= x(4,1) <= 1
 0 <= x(4,2) <= 1
 0 <= x(4,3) <= 1
      x(4,4) = 0
 0 <= x(4,5) <= 1
 0 <= x(4,6) <= 1
 0 <= x(4,7) <= 1
 0 <= x(4,8) <= 1
 0 <= x(4,9) <= 1
 0 <= x(4,10) <= 1
 0 <= x(4,11) <= 1
 0 <= x(4,12) <= 1
 0 <= x(4,13) <= 1
 0 <= x(4,14) <= 1
 0 <= x(5,1) <= 1
 0 <= x(5,2) <= 1
 0 <= x(5,3) <= 1
 0 <= x(5,4) <= 1
      x(5,5) = 0
 0 <= x(5,6) <= 1
 0 <= x(5,7) <= 1
 0 <= x(5,8) <= 1
 0 <= x(5,9) <= 1
 0 <= x(5,10) <= 1
 0 <= x(5,11) <= 1
 0 <= x(5,12) <= 1
 0 <= x(5,13) <= 1
 0 <= x(5,14) <= 1
 0 <= x(6,1) <= 1
 0 <= x(6,2) <= 1
 0 <= x(6,3) <= 1
 0 <= x(6,4) <= 1
 0 <= x(6,5) <= 1
      x(6,6) = 0
 0 <= x(6,7) <= 1
 0 <= x(6,8) <= 1
 0 <= x(6,9) <= 1
 0 <= x(6,10) <= 1
 0 <= x(6,11) <= 1
 0 <= x(6,12) <= 1
 0 <= x(6,13) <= 1
 0 <= x(6,14) <= 1
 0 <= x(7,1) <= 1
 0 <= x(7,2) <= 1
 0 <= x(7,3) <= 1
 0 <= x(7,4) <= 1
 0 <= x(7,5) <= 1
 0 <= x(7,6) <= 1
      x(7,7) = 0
 0 <= x(7,8) <= 1
 0 <= x(7,9) <= 1
 0 <= x(7,10) <= 1
 0 <= x(7,11) <= 1
 0 <= x(7,12) <= 1
 0 <= x(7,13) <= 1
 0 <= x(7,14) <= 1
 0 <= x(8,1) <= 1
 0 <= x(8,2) <= 1
 0 <= x(8,3) <= 1
 0 <= x(8,4) <= 1
 0 <= x(8,5) <= 1
 0 <= x(8,6) <= 1
 0 <= x(8,7) <= 1
      x(8,8) = 0
 0 <= x(8,9) <= 1
 0 <= x(8,10) <= 1
 0 <= x(8,11) <= 1
 0 <= x(8,12) <= 1
 0 <= x(8,13) <= 1
 0 <= x(8,14) <= 1
 0 <= x(9,1) <= 1
 0 <= x(9,2) <= 1
 0 <= x(9,3) <= 1
 0 <= x(9,4) <= 1
 0 <= x(9,5) <= 1
 0 <= x(9,6) <= 1
 0 <= x(9,7) <= 1
 0 <= x(9,8) <= 1
      x(9,9) = 0
 0 <= x(9,10) <= 1
 0 <= x(9,11) <= 1
 0 <= x(9,12) <= 1
 0 <= x(9,13) <= 1
 0 <= x(9,14) <= 1
 0 <= x(10,1) <= 1
 0 <= x(10,2) <= 1
 0 <= x(10,3) <= 1
 0 <= x(10,4) <= 1
 0 <= x(10,5) <= 1
 0 <= x(10,6) <= 1
 0 <= x(10,7) <= 1
 0 <= x(10,8) <= 1
 0 <= x(10,9) <= 1
      x(10,10) = 0
 0 <= x(10,11) <= 1
 0 <= x(10,12) <= 1
 0 <= x(10,13) <= 1
 0 <= x(10,14) <= 1
 0 <= x(11,1) <= 1
 0 <= x(11,2) <= 1
 0 <= x(11,3) <= 1
 0 <= x(11,4) <= 1
 0 <= x(11,5) <= 1
 0 <= x(11,6) <= 1
 0 <= x(11,7) <= 1
 0 <= x(11,8) <= 1
 0 <= x(11,9) <= 1
 0 <= x(11,10) <= 1
      x(11,11) = 0
 0 <= x(11,12) <= 1
 0 <= x(11,13) <= 1
 0 <= x(11,14) <= 1
 0 <= x(12,1) <= 1
 0 <= x(12,2) <= 1
 0 <= x(12,3) <= 1
 0 <= x(12,4) <= 1
 0 <= x(12,5) <= 1
 0 <= x(12,6) <= 1
 0 <= x(12,7) <= 1
 0 <= x(12,8) <= 1
 0 <= x(12,9) <= 1
 0 <= x(12,10) <= 1
 0 <= x(12,11) <= 1
      x(12,12) = 0
 0 <= x(12,13) <= 1
 0 <= x(12,14) <= 1
 0 <= x(13,1) <= 1
 0 <= x(13,2) <= 1
 0 <= x(13,3) <= 1
 0 <= x(13,4) <= 1
 0 <= x(13,5) <= 1
 0 <= x(13,6) <= 1
 0 <= x(13,7) <= 1
 0 <= x(13,8) <= 1
 0 <= x(13,9) <= 1
 0 <= x(13,10) <= 1
 0 <= x(13,11) <= 1
 0 <= x(13,12) <= 1
      x(13,13) = 0
 0 <= x(13,14) <= 1
 0 <= x(14,1) <= 1
 0 <= x(14,2) <= 1
 0 <= x(14,3) <= 1
 0 <= x(14,4) <= 1
 0 <= x(14,5) <= 1
 0 <= x(14,6) <= 1
 0 <= x(14,7) <= 1
 0 <= x(14,8) <= 1
 0 <= x(14,9) <= 1
 0 <= x(14,10) <= 1
 0 <= x(14,11) <= 1
 0 <= x(14,12) <= 1
 0 <= x(14,13) <= 1
      x(14,14) = 0
      u(1) = 0
 0 <= u(2) <= 13
 0 <= u(3) <= 13
 0 <= u(4) <= 13
 0 <= u(5) <= 13
 0 <= u(6) <= 13
 0 <= u(7) <= 13
 0 <= u(8) <= 13
 0 <= u(9) <= 13
 0 <= u(10) <= 13
 0 <= u(11) <= 13
 0 <= u(12) <= 13
 0 <= u(13) <= 13
 0 <= u(14) <= 13
Binaries
 x(1,1)  x(1,2)  x(1,3)  x(1,4)  x(1,5)  x(1,6)  x(1,7)  x(1,8)  x(1,9) 
 x(1,10)  x(1,11)  x(1,12)  x(1,13)  x(1,14)  x(2,1)  x(2,2)  x(2,3)  x(2,4) 
 x(2,5)  x(2,6)  x(2,7)  x(2,8)  x(2,9)  x(2,10)  x(2,11)  x(2,12)  x(2,13) 
 x(2,14)  x(3,1)  x(3,2)  x(3,3)  x(3,4)  x(3,5)  x(3,6)  x(3,7)  x(3,8) 
 x(3,9)  x(3,10)  x(3,11)  x(3,12)  x(3,13)  x(3,14)  x(4,1)  x(4,2)  x(4,3) 
 x(4,4)  x(4,5)  x(4,6)  x(4,7)  x(4,8)  x(4,9)  x(4,10)  x(4,11)  x(4,12) 
 x(4,13)  x(4,14)  x(5,1)  x(5,2)  x(5,3)  x(5,4)  x(5,5)  x(5,6)  x(5,7) 
 x(5,8)  x(5,9)  x(5,10)  x(5,11)  x(5,12)  x(5,13)  x(5,14)  x(6,1)  x(6,2) 
 x(6,3)  x(6,4)  x(6,5)  x(6,6)  x(6,7)  x(6,8)  x(6,9)  x(6,10)  x(6,11) 
 x(6,12)  x(6,13)  x(6,14)  x(7,1)  x(7,2)  x(7,3)  x(7,4)  x(7,5)  x(7,6) 
 x(7,7)  x(7,8)  x(7,9)  x(7,10)  x(7,11)  x(7,12)  x(7,13)  x(7,14)  x(8,1) 
 x(8,2)  x(8,3)  x(8,4)  x(8,5)  x(8,6)  x(8,7)  x(8,8)  x(8,9)  x(8,10) 
 x(8,11)  x(8,12)  x(8,13)  x(8,14)  x(9,1)  x(9,2)  x(9,3)  x(9,4)  x(9,5) 
 x(9,6)  x(9,7)  x(9,8)  x(9,9)  x(9,10)  x(9,11)  x(9,12)  x(9,13)  x(9,14) 
 x(10,1)  x(10,2)  x(10,3)  x(10,4)  x(10,5)  x(10,6)  x(10,7)  x(10,8) 
 x(10,9)  x(10,10)  x(10,11)  x(10,12)  x(10,13)  x(10,14)  x(11,1)  x(11,2) 
 x(11,3)  x(11,4)  x(11,5)  x(11,6)  x(11,7)  x(11,8)  x(11,9)  x(11,10) 
 x(11,11)  x(11,12)  x(11,13)  x(11,14)  x(12,1)  x(12,2)  x(12,3)  x(12,4) 
 x(12,5)  x(12,6)  x(12,7)  x(12,8)  x(12,9)  x(12,10)  x(12,11)  x(12,12) 
 x(12,13)  x(12,14)  x(13,1)  x(13,2)  x(13,3)  x(13,4)  x(13,5)  x(13,6) 
 x(13,7)  x(13,8)  x(13,9)  x(13,10)  x(13,11)  x(13,12)  x(13,13)  x(13,14) 
 x(14,1)  x(14,2)  x(14,3)  x(14,4)  x(14,5)  x(14,6)  x(14,7)  x(14,8) 
 x(14,9)  x(14,10)  x(14,11)  x(14,12)  x(14,13)  x(14,14) 
Generals
 u(1)  u(2)  u(3)  u(4)  u(5)  u(6)  u(7)  u(8)  u(9)  u(10)  u(11)  u(12) 
 u(13)  u(14) 
End
