output/log/model_MTZ_burma14.log
Version identifier: 20.1.0.0 | 2020-11-10 | 9bedb6d68
CPXPARAM_RandomSeed                              1234
CPXPARAM_TimeLimit                               3600
Tried aggregator 1 time.
MIP Presolve eliminated 0 rows and 15 columns.
Reduced MIP has 184 rows, 195 columns, and 832 nonzeros.
Reduced MIP has 182 binaries, 13 generals, 0 SOSs, and 0 indicators.
Presolve time = 0.00 sec. (0.50 ticks)
Probing time = 0.00 sec. (0.49 ticks)
Tried aggregator 1 time.
Detecting symmetries...
Reduced MIP has 184 rows, 195 columns, and 832 nonzeros.
Reduced MIP has 182 binaries, 13 generals, 0 SOSs, and 0 indicators.
Presolve time = 0.00 sec. (0.64 ticks)
Probing time = 0.00 sec. (0.50 ticks)
Clique table members: 106.
MIP emphasis: balance optimality and feasibility.
MIP search method: dynamic search.
Parallel mode: deterministic, using up to 8 threads.
Root relaxation solution time = 0.00 sec. (0.30 ticks)

        Nodes                                         Cuts/
   Node  Left     Objective  IInf  Best Integer    Best Bound    ItCnt     Gap

*     0+    0                         6901.0000        0.0000           100.00%
      0     0     2786.0769    28     6901.0000     2786.0769       25   59.63%
      0     0     3001.0000    33     6901.0000      Cuts: 59       51   56.51%
      0     0     3008.6579    39     6901.0000      Cuts: 15       64   56.40%
      0     0     3008.6579    41     6901.0000      Cuts: 31       68   56.40%
      0     0     3008.6579    41     6901.0000   ZeroHalf: 2       69   56.40%
*     0+    0                         3336.0000     3008.6579             9.81%
Detecting symmetries...

Repeating presolve.
Tried aggregator 1 time.
MIP Presolve eliminated 0 rows and 72 columns.
Reduced MIP has 184 rows, 123 columns, and 629 nonzeros.
Reduced MIP has 110 binaries, 13 generals, 0 SOSs, and 0 indicators.
Presolve time = 0.00 sec. (0.36 ticks)
Probing time = 0.00 sec. (0.26 ticks)
Cover probing fixed 0 vars, tightened 13 bounds.
Tried aggregator 1 time.
Detecting symmetries...
MIP Presolve eliminated 56 rows and 0 columns.
MIP Presolve modified 72 coefficients.
Reduced MIP has 128 rows, 123 columns, and 517 nonzeros.
Reduced MIP has 110 binaries, 13 generals, 0 SOSs, and 0 indicators.
Presolve time = 0.00 sec. (0.38 ticks)
Represolve time = 0.00 sec. (1.35 ticks)
Probing time = 0.00 sec. (0.24 ticks)
Clique table members: 75.
MIP emphasis: balance optimality and feasibility.
MIP search method: dynamic search.
Parallel mode: deterministic, using up to 8 threads.
Root relaxation solution time = 0.00 sec. (0.26 ticks)

        Nodes                                         Cuts/
   Node  Left     Objective  IInf  Best Integer    Best Bound    ItCnt     Gap

*     0+    0                         3336.0000     3054.5385             8.44%
      0     0     3008.6579    28     3336.0000     3054.5385      100    8.44%
      0     0     3066.0000    37     3336.0000      Cuts: 49      132    8.09%
      0     0     3069.6960    41     3336.0000      Cuts: 21      143    7.98%
      0     0     3076.6667    39     3336.0000      Cuts: 21      151    7.77%
      0     0     3080.4545    39     3336.0000       Cuts: 7      162    7.66%
      0     0     3080.4545    40     3336.0000       Cuts: 5      167    7.66%
      0     0     3080.4545    38     3336.0000   ZeroHalf: 6      169    7.66%
*     0+    0                         3323.0000     3080.4545             7.30%
Detecting symmetries...
      0     2     3080.4545    38     3323.0000     3135.5477      169    5.64%
Elapsed time = 0.10 sec. (29.82 ticks, tree = 0.02 MB, solutions = 3)

Clique cuts applied:  4
Implied bound cuts applied:  126
Mixed integer rounding cuts applied:  2
Zero-half cuts applied:  15
Multi commodity flow cuts applied:  1
Lift and project cuts applied:  3
Gomory fractional cuts applied:  3

Root node processing (before b&c):
  Real time             =    0.10 sec. (29.74 ticks)
Parallel b&c, 8 threads:
  Real time             =    0.03 sec. (9.69 ticks)
  Sync time (average)   =    0.01 sec.
  Wait time (average)   =    0.00 sec.
                          ------------
Total (root+branch&cut) =    0.13 sec. (39.43 ticks)
